25 350
  0     40.0     50.0       0.0     3390.0      0.0       0.0       0.0  
  1     52.0     75.0       0.0     3272.0     90.0      10.0      10.0  
  2     45.0     70.0       0.0     3279.0     90.0      28.0      30.0  
  3     62.0     69.0       0.0     3270.0     90.0       6.0      10.0  
  4     60.0     66.0     1261.0    1421.0     90.0       7.0      10.0  
  5     42.0     65.0       0.0     3284.0     90.0       6.0      10.0  
  6     16.0     42.0       0.0     3274.0     90.0      14.0      20.0  
  7     58.0     70.0       0.0     3273.0     90.0       7.0      20.0  
  8     34.0     60.0     2887.0    3047.0     90.0      15.0      20.0  
  9     28.0     70.0     2601.0    2761.0     90.0       1.0      10.0  
 10     35.0     66.0       0.0     3283.0     90.0       9.0      10.0  
 11     35.0     69.0     2698.0    2858.0     90.0       7.0      10.0  
 12     25.0     85.0       0.0     3261.0     90.0      13.0      20.0  
 13     22.0     75.0     2405.0    2565.0     90.0       6.0      30.0  
 14     22.0     85.0       0.0     3260.0     90.0       2.0      10.0  
 15     20.0     80.0     2216.0    2376.0     90.0      21.0      40.0  
 16     20.0     85.0       0.0     3259.0     90.0      28.0      40.0  
 17     18.0     75.0       0.0     3266.0     90.0      13.0      20.0  
 18     15.0     75.0       0.0     3264.0     90.0       9.0      20.0  
 19     15.0     80.0       0.0     3260.0     90.0       3.0      10.0  
 20     30.0     50.0       0.0     3290.0     90.0       2.0      10.0  
 21     30.0     56.0       0.0     3288.0     90.0       7.0      20.0  
 22     28.0     52.0       0.0     3287.0     90.0      12.0      20.0  
 23     14.0     66.0     1643.0    1803.0     90.0       2.0      10.0  
 24     25.0     50.0       0.0     3285.0     90.0       9.0      10.0  
 25     22.0     66.0     2504.0    2664.0     90.0      40.0      40.0  
 26      8.0     62.0       0.0     3265.0     90.0       7.0      10.0  
 27     23.0     52.0       0.0     3282.0     90.0       6.0      10.0  
 28      4.0     55.0       0.0     3263.0     90.0       9.0      20.0  
 29     20.0     50.0       0.0     3280.0     90.0       7.0      10.0  
 30     20.0     55.0       0.0     3279.0     90.0       8.0      10.0  
 31     10.0     35.0       0.0     3266.0     90.0       0.0      20.0  
 32     10.0     40.0       0.0     3268.0     90.0      25.0      30.0  
 33      8.0     40.0       0.0     3266.0     90.0      25.0      40.0  
 34      8.0     45.0       0.0     3267.0     90.0      14.0      20.0  
 35      5.0     35.0       0.0     3261.0     90.0       2.0      10.0  
 36      5.0     45.0       0.0     3264.0     90.0       0.0      10.0  
 37      2.0     40.0       0.0     3260.0     90.0      18.0      20.0  
 38      0.0     40.0     1063.0    1223.0     90.0      20.0      30.0  
 39      0.0     45.0       0.0     3259.0     90.0       2.0      20.0  
 40     36.0     18.0       0.0     3267.0     90.0       7.0      10.0  
 41     35.0     32.0       0.0     3281.0     90.0       1.0      10.0  
 42     33.0     32.0       0.0     3280.0     90.0      17.0      20.0  
 43     33.0     35.0       0.0     3283.0     90.0      10.0      10.0  
 44     32.0     20.0     1913.0    2073.0     90.0       2.0      10.0  
 45     30.0     30.0       0.0     3277.0     90.0       3.0      10.0  
 46     34.0     25.0       0.0     3274.0     90.0      10.0      30.0  
 47     30.0     35.0       0.0     3281.0     90.0       2.0      10.0  
 48     36.0     40.0       0.0     3289.0     90.0       1.0      10.0  
 49     48.0     20.0       0.0     3268.0     90.0       3.0      10.0  
 50     26.0     32.0       0.0     3277.0     90.0       1.0      10.0  
